files/upTests/matrixes2/0004.eprime.solution
language ESSENCE' 1.0
$ minion Nodes: 4
$ minion TotalTime: 0.004494
$ Savile Row TotalTime: 1.719
letting x_SetExplicitVarSize_tuple2 be [[6, 6, 6;int(1..3)], 
[6, 7, 8;int(1..3)];int(1..2)]
letting x_SetExplicitVarSizeWithDefault be [[5, 5, 6;int(1..3)], 
[5, 7, 8;int(1..3)];int(1..2)]
letting x_SetExplicitVarSize_tuple1 be [[false, false, true;int(1..3)], 
[false, true, true;int(1..3)];int(1..2)]
